p cnf 181 1008
1 -101 -77 0
-1 101 -77 0
1 101 -78 0
-1 -101 -78 0
20 -101 -83 0
-20 101 -83 0
20 101 -84 0
-20 -101 -84 0
39 -101 -89 0
-39 101 -89 0
39 101 -90 0
-39 -101 -90 0
58 -101 -95 0
-58 101 -95 0
58 101 -96 0
-58 -101 -96 0
2 -77 0
2 -78 0
77 -77 0
78 -78 0
21 -83 0
21 -84 0
83 -83 0
84 -84 0
40 -89 0
40 -90 0
89 -89 0
90 -90 0
59 -95 0
59 -96 0
95 -95 0
96 -96 0
3 -102 -77 0
-3 102 -77 0
3 102 -78 0
-3 -102 -78 0
22 -102 -83 0
-22 102 -83 0
22 102 -84 0
-22 -102 -84 0
41 -102 -89 0
-41 102 -89 0
41 102 -90 0
-41 -102 -90 0
60 -102 -95 0
-60 102 -95 0
60 102 -96 0
-60 -102 -96 0
4 -103 -77 0
-4 103 -77 0
4 103 -78 0
-4 -103 -78 0
23 -103 -83 0
-23 103 -83 0
23 103 -84 0
-23 -103 -84 0
42 -103 -89 0
-42 103 -89 0
42 103 -90 0
-42 -103 -90 0
61 -103 -95 0
-61 103 -95 0
61 103 -96 0
-61 -103 -96 0
5 -77 0
5 -78 0
77 -77 0
78 -78 0
24 -83 0
24 -84 0
83 -83 0
84 -84 0
43 -89 0
43 -90 0
89 -89 0
90 -90 0
62 -95 0
62 -96 0
95 -95 0
96 -96 0
6 -77 0
6 -78 0
77 -77 0
78 -78 0
25 -83 0
25 -84 0
83 -83 0
84 -84 0
44 -89 0
44 -90 0
89 -89 0
90 -90 0
63 -95 0
63 -96 0
95 -95 0
96 -96 0
7 -104 -77 0
-7 104 -77 0
7 104 -78 0
-7 -104 -78 0
26 -104 -83 0
-26 104 -83 0
26 104 -84 0
-26 -104 -84 0
45 -104 -89 0
-45 104 -89 0
45 104 -90 0
-45 -104 -90 0
64 -104 -95 0
-64 104 -95 0
64 104 -96 0
-64 -104 -96 0
8 -77 0
8 -78 0
77 -77 0
78 -78 0
27 -83 0
27 -84 0
83 -83 0
84 -84 0
46 -89 0
46 -90 0
89 -89 0
90 -90 0
65 -95 0
65 -96 0
95 -95 0
96 -96 0
9 -77 0
9 -78 0
77 -77 0
78 -78 0
28 -83 0
28 -84 0
83 -83 0
84 -84 0
47 -89 0
47 -90 0
89 -89 0
90 -90 0
66 -95 0
66 -96 0
95 -95 0
96 -96 0
10 -77 0
10 -78 0
77 -77 0
78 -78 0
29 -83 0
29 -84 0
83 -83 0
84 -84 0
48 -89 0
48 -90 0
89 -89 0
90 -90 0
67 -95 0
67 -96 0
95 -95 0
96 -96 0
11 -77 0
11 -78 0
77 -77 0
78 -78 0
30 -83 0
30 -84 0
83 -83 0
84 -84 0
49 -89 0
49 -90 0
89 -89 0
90 -90 0
68 -95 0
68 -96 0
95 -95 0
96 -96 0
-12 -77 0
-12 -78 0
77 -77 0
78 -78 0
-31 -83 0
-31 -84 0
83 -83 0
84 -84 0
-50 -89 0
-50 -90 0
89 -89 0
90 -90 0
-69 -95 0
-69 -96 0
95 -95 0
96 -96 0
13 -105 -77 0
-13 105 -77 0
13 105 -78 0
-13 -105 -78 0
32 -105 -83 0
-32 105 -83 0
32 105 -84 0
-32 -105 -84 0
51 -105 -89 0
-51 105 -89 0
51 105 -90 0
-51 -105 -90 0
70 -105 -95 0
-70 105 -95 0
70 105 -96 0
-70 -105 -96 0
14 -106 -77 0
-14 106 -77 0
14 106 -78 0
-14 -106 -78 0
33 -106 -83 0
-33 106 -83 0
33 106 -84 0
-33 -106 -84 0
52 -106 -89 0
-52 106 -89 0
52 106 -90 0
-52 -106 -90 0
71 -106 -95 0
-71 106 -95 0
71 106 -96 0
-71 -106 -96 0
15 -107 -77 0
-15 107 -77 0
15 107 -78 0
-15 -107 -78 0
34 -107 -83 0
-34 107 -83 0
34 107 -84 0
-34 -107 -84 0
53 -107 -89 0
-53 107 -89 0
53 107 -90 0
-53 -107 -90 0
72 -107 -95 0
-72 107 -95 0
72 107 -96 0
-72 -107 -96 0
16 -77 0
16 -78 0
77 -77 0
78 -78 0
35 -83 0
35 -84 0
83 -83 0
84 -84 0
54 -89 0
54 -90 0
89 -89 0
90 -90 0
73 -95 0
73 -96 0
95 -95 0
96 -96 0
17 -77 0
17 -78 0
77 -77 0
78 -78 0
36 -83 0
36 -84 0
83 -83 0
84 -84 0
55 -89 0
55 -90 0
89 -89 0
90 -90 0
74 -95 0
74 -96 0
95 -95 0
96 -96 0
18 -77 0
18 -78 0
77 -77 0
78 -78 0
37 -83 0
37 -84 0
83 -83 0
84 -84 0
56 -89 0
56 -90 0
89 -89 0
90 -90 0
75 -95 0
75 -96 0
95 -95 0
96 -96 0
19 -108 -77 0
-19 108 -77 0
19 108 -78 0
-19 -108 -78 0
38 -108 -83 0
-38 108 -83 0
38 108 -84 0
-38 -108 -84 0
57 -108 -89 0
-57 108 -89 0
57 108 -90 0
-57 -108 -90 0
76 -108 -95 0
-76 108 -95 0
76 108 -96 0
-76 -108 -96 0
-158 77 0
158 -77 0
-159 78 0
158 -78 0
-158 -77 0
-159 -78 0
-164 77 158 0
164 -77 0
164 -158 0
-165 78 159 0
165 -78 0
165 -159 0
-164 -83 0
-165 -84 0
-170 83 164 0
170 -83 0
170 -164 0
-171 84 165 0
171 -84 0
171 -165 0
-170 -89 0
-171 -90 0
-176 89 170 0
176 -89 0
176 -170 0
-177 90 171 0
177 -90 0
177 -171 0
-176 -95 0
-177 -96 0
176 0
177 0
1 -79 0
1 -80 0
79 -79 0
80 -80 0
20 -85 0
20 -86 0
85 -85 0
86 -86 0
39 -91 0
39 -92 0
91 -91 0
92 -92 0
58 -97 0
58 -98 0
97 -97 0
98 -98 0
2 -109 -79 0
-2 109 -79 0
2 109 -80 0
-2 -109 -80 0
21 -109 -85 0
-21 109 -85 0
21 109 -86 0
-21 -109 -86 0
40 -109 -91 0
-40 109 -91 0
40 109 -92 0
-40 -109 -92 0
59 -109 -97 0
-59 109 -97 0
59 109 -98 0
-59 -109 -98 0
3 -79 0
3 -80 0
79 -79 0
80 -80 0
22 -85 0
22 -86 0
85 -85 0
86 -86 0
41 -91 0
41 -92 0
91 -91 0
92 -92 0
60 -97 0
60 -98 0
97 -97 0
98 -98 0
4 -79 0
4 -80 0
79 -79 0
80 -80 0
23 -85 0
23 -86 0
85 -85 0
86 -86 0
42 -91 0
42 -92 0
91 -91 0
92 -92 0
61 -97 0
61 -98 0
97 -97 0
98 -98 0
5 -110 -79 0
-5 110 -79 0
5 110 -80 0
-5 -110 -80 0
24 -110 -85 0
-24 110 -85 0
24 110 -86 0
-24 -110 -86 0
43 -110 -91 0
-43 110 -91 0
43 110 -92 0
-43 -110 -92 0
62 -110 -97 0
-62 110 -97 0
62 110 -98 0
-62 -110 -98 0
6 -111 -79 0
-6 111 -79 0
6 111 -80 0
-6 -111 -80 0
25 -111 -85 0
-25 111 -85 0
25 111 -86 0
-25 -111 -86 0
44 -111 -91 0
-44 111 -91 0
44 111 -92 0
-44 -111 -92 0
63 -111 -97 0
-63 111 -97 0
63 111 -98 0
-63 -111 -98 0
7 -112 -79 0
-7 112 -79 0
7 112 -80 0
-7 -112 -80 0
26 -112 -85 0
-26 112 -85 0
26 112 -86 0
-26 -112 -86 0
45 -112 -91 0
-45 112 -91 0
45 112 -92 0
-45 -112 -92 0
64 -112 -97 0
-64 112 -97 0
64 112 -98 0
-64 -112 -98 0
8 -79 0
8 -80 0
79 -79 0
80 -80 0
27 -85 0
27 -86 0
85 -85 0
86 -86 0
46 -91 0
46 -92 0
91 -91 0
92 -92 0
65 -97 0
65 -98 0
97 -97 0
98 -98 0
9 -113 -79 0
-9 113 -79 0
9 113 -80 0
-9 -113 -80 0
28 -113 -85 0
-28 113 -85 0
28 113 -86 0
-28 -113 -86 0
47 -113 -91 0
-47 113 -91 0
47 113 -92 0
-47 -113 -92 0
66 -113 -97 0
-66 113 -97 0
66 113 -98 0
-66 -113 -98 0
10 -114 -79 0
-10 114 -79 0
10 114 -80 0
-10 -114 -80 0
29 -114 -85 0
-29 114 -85 0
29 114 -86 0
-29 -114 -86 0
48 -114 -91 0
-48 114 -91 0
48 114 -92 0
-48 -114 -92 0
67 -114 -97 0
-67 114 -97 0
67 114 -98 0
-67 -114 -98 0
11 -115 -79 0
-11 115 -79 0
11 115 -80 0
-11 -115 -80 0
30 -115 -85 0
-30 115 -85 0
30 115 -86 0
-30 -115 -86 0
49 -115 -91 0
-49 115 -91 0
49 115 -92 0
-49 -115 -92 0
68 -115 -97 0
-68 115 -97 0
68 115 -98 0
-68 -115 -98 0
12 -116 -79 0
-12 116 -79 0
12 116 -80 0
-12 -116 -80 0
31 -116 -85 0
-31 116 -85 0
31 116 -86 0
-31 -116 -86 0
50 -116 -91 0
-50 116 -91 0
50 116 -92 0
-50 -116 -92 0
69 -116 -97 0
-69 116 -97 0
69 116 -98 0
-69 -116 -98 0
13 -117 -79 0
-13 117 -79 0
13 117 -80 0
-13 -117 -80 0
32 -117 -85 0
-32 117 -85 0
32 117 -86 0
-32 -117 -86 0
51 -117 -91 0
-51 117 -91 0
51 117 -92 0
-51 -117 -92 0
70 -117 -97 0
-70 117 -97 0
70 117 -98 0
-70 -117 -98 0
14 -79 0
14 -80 0
79 -79 0
80 -80 0
33 -85 0
33 -86 0
85 -85 0
86 -86 0
52 -91 0
52 -92 0
91 -91 0
92 -92 0
71 -97 0
71 -98 0
97 -97 0
98 -98 0
15 -118 -79 0
-15 118 -79 0
15 118 -80 0
-15 -118 -80 0
34 -118 -85 0
-34 118 -85 0
34 118 -86 0
-34 -118 -86 0
53 -118 -91 0
-53 118 -91 0
53 118 -92 0
-53 -118 -92 0
72 -118 -97 0
-72 118 -97 0
72 118 -98 0
-72 -118 -98 0
16 -79 0
16 -80 0
79 -79 0
80 -80 0
35 -85 0
35 -86 0
85 -85 0
86 -86 0
54 -91 0
54 -92 0
91 -91 0
92 -92 0
73 -97 0
73 -98 0
97 -97 0
98 -98 0
17 -119 -79 0
-17 119 -79 0
17 119 -80 0
-17 -119 -80 0
36 -119 -85 0
-36 119 -85 0
36 119 -86 0
-36 -119 -86 0
55 -119 -91 0
-55 119 -91 0
55 119 -92 0
-55 -119 -92 0
74 -119 -97 0
-74 119 -97 0
74 119 -98 0
-74 -119 -98 0
18 -79 0
18 -80 0
79 -79 0
80 -80 0
37 -85 0
37 -86 0
85 -85 0
86 -86 0
56 -91 0
56 -92 0
91 -91 0
92 -92 0
75 -97 0
75 -98 0
97 -97 0
98 -98 0
19 -79 0
19 -80 0
79 -79 0
80 -80 0
38 -85 0
38 -86 0
85 -85 0
86 -86 0
57 -91 0
57 -92 0
91 -91 0
92 -92 0
76 -97 0
76 -98 0
97 -97 0
98 -98 0
-160 79 0
160 -79 0
-161 80 0
160 -80 0
-160 -79 0
-161 -80 0
-166 79 160 0
166 -79 0
166 -160 0
-167 80 161 0
167 -80 0
167 -161 0
-166 -85 0
-167 -86 0
-172 85 166 0
172 -85 0
172 -166 0
-173 86 167 0
173 -86 0
173 -167 0
-172 -91 0
-173 -92 0
-178 91 172 0
178 -91 0
178 -172 0
-179 92 173 0
179 -92 0
179 -173 0
-178 -97 0
-179 -98 0
178 0
179 0
1 -81 0
1 -82 0
81 -81 0
82 -82 0
20 -87 0
20 -88 0
87 -87 0
88 -88 0
39 -93 0
39 -94 0
93 -93 0
94 -94 0
58 -99 0
58 -100 0
99 -99 0
100 -100 0
2 -120 -81 0
-2 120 -81 0
2 120 -82 0
-2 -120 -82 0
21 -120 -87 0
-21 120 -87 0
21 120 -88 0
-21 -120 -88 0
40 -120 -93 0
-40 120 -93 0
40 120 -94 0
-40 -120 -94 0
59 -120 -99 0
-59 120 -99 0
59 120 -100 0
-59 -120 -100 0
3 -81 0
3 -82 0
81 -81 0
82 -82 0
22 -87 0
22 -88 0
87 -87 0
88 -88 0
41 -93 0
41 -94 0
93 -93 0
94 -94 0
60 -99 0
60 -100 0
99 -99 0
100 -100 0
4 -81 0
4 -82 0
81 -81 0
82 -82 0
23 -87 0
23 -88 0
87 -87 0
88 -88 0
42 -93 0
42 -94 0
93 -93 0
94 -94 0
61 -99 0
61 -100 0
99 -99 0
100 -100 0
5 -121 -81 0
-5 121 -81 0
5 121 -82 0
-5 -121 -82 0
24 -121 -87 0
-24 121 -87 0
24 121 -88 0
-24 -121 -88 0
43 -121 -93 0
-43 121 -93 0
43 121 -94 0
-43 -121 -94 0
62 -121 -99 0
-62 121 -99 0
62 121 -100 0
-62 -121 -100 0
6 -122 -81 0
-6 122 -81 0
6 122 -82 0
-6 -122 -82 0
25 -122 -87 0
-25 122 -87 0
25 122 -88 0
-25 -122 -88 0
44 -122 -93 0
-44 122 -93 0
44 122 -94 0
-44 -122 -94 0
63 -122 -99 0
-63 122 -99 0
63 122 -100 0
-63 -122 -100 0
7 -81 0
7 -82 0
81 -81 0
82 -82 0
26 -87 0
26 -88 0
87 -87 0
88 -88 0
45 -93 0
45 -94 0
93 -93 0
94 -94 0
64 -99 0
64 -100 0
99 -99 0
100 -100 0
8 -81 0
8 -82 0
81 -81 0
82 -82 0
27 -87 0
27 -88 0
87 -87 0
88 -88 0
46 -93 0
46 -94 0
93 -93 0
94 -94 0
65 -99 0
65 -100 0
99 -99 0
100 -100 0
9 -81 0
9 -82 0
81 -81 0
82 -82 0
28 -87 0
28 -88 0
87 -87 0
88 -88 0
47 -93 0
47 -94 0
93 -93 0
94 -94 0
66 -99 0
66 -100 0
99 -99 0
100 -100 0
10 -81 0
10 -82 0
81 -81 0
82 -82 0
29 -87 0
29 -88 0
87 -87 0
88 -88 0
48 -93 0
48 -94 0
93 -93 0
94 -94 0
67 -99 0
67 -100 0
99 -99 0
100 -100 0
11 -81 0
11 -82 0
81 -81 0
82 -82 0
30 -87 0
30 -88 0
87 -87 0
88 -88 0
49 -93 0
49 -94 0
93 -93 0
94 -94 0
68 -99 0
68 -100 0
99 -99 0
100 -100 0
12 -123 -81 0
-12 123 -81 0
12 123 -82 0
-12 -123 -82 0
31 -123 -87 0
-31 123 -87 0
31 123 -88 0
-31 -123 -88 0
50 -123 -93 0
-50 123 -93 0
50 123 -94 0
-50 -123 -94 0
69 -123 -99 0
-69 123 -99 0
69 123 -100 0
-69 -123 -100 0
-13 -81 0
-13 -82 0
81 -81 0
82 -82 0
-32 -87 0
-32 -88 0
87 -87 0
88 -88 0
-51 -93 0
-51 -94 0
93 -93 0
94 -94 0
-70 -99 0
-70 -100 0
99 -99 0
100 -100 0
14 -81 0
14 -82 0
81 -81 0
82 -82 0
33 -87 0
33 -88 0
87 -87 0
88 -88 0
52 -93 0
52 -94 0
93 -93 0
94 -94 0
71 -99 0
71 -100 0
99 -99 0
100 -100 0
-15 -81 0
-15 -82 0
81 -81 0
82 -82 0
-34 -87 0
-34 -88 0
87 -87 0
88 -88 0
-53 -93 0
-53 -94 0
93 -93 0
94 -94 0
-72 -99 0
-72 -100 0
99 -99 0
100 -100 0
16 -81 0
16 -82 0
81 -81 0
82 -82 0
35 -87 0
35 -88 0
87 -87 0
88 -88 0
54 -93 0
54 -94 0
93 -93 0
94 -94 0
73 -99 0
73 -100 0
99 -99 0
100 -100 0
17 -81 0
17 -82 0
81 -81 0
82 -82 0
36 -87 0
36 -88 0
87 -87 0
88 -88 0
55 -93 0
55 -94 0
93 -93 0
94 -94 0
74 -99 0
74 -100 0
99 -99 0
100 -100 0
18 -81 0
18 -82 0
81 -81 0
82 -82 0
37 -87 0
37 -88 0
87 -87 0
88 -88 0
56 -93 0
56 -94 0
93 -93 0
94 -94 0
75 -99 0
75 -100 0
99 -99 0
100 -100 0
19 -81 0
19 -82 0
81 -81 0
82 -82 0
38 -87 0
38 -88 0
87 -87 0
88 -88 0
57 -93 0
57 -94 0
93 -93 0
94 -94 0
76 -99 0
76 -100 0
99 -99 0
100 -100 0
-162 81 0
162 -81 0
-163 82 0
162 -82 0
-162 -81 0
-163 -82 0
-168 81 162 0
168 -81 0
168 -162 0
-169 82 163 0
169 -82 0
169 -163 0
-168 -87 0
-169 -88 0
-174 87 168 0
174 -87 0
174 -168 0
-175 88 169 0
175 -88 0
175 -169 0
-174 -93 0
-175 -94 0
-180 93 174 0
180 -93 0
180 -174 0
-181 94 175 0
181 -94 0
181 -175 0
-180 -99 0
-181 -100 0
180 0
181 0
